2
30
50
40	35
1	1	7	9	
2	2	13	5	29	3	
3	1	35	4	
4	2	15	6	22	3	
5	2	18	5	33	3	
6	1	6	14	
7	2	8	17	5	17	
8	1	8	12	
9	1	17	6	
10	2	29	3	26	2	
11	1	8	9	
12	1	12	7	
13	1	16	9	
14	2	14	9	15	6	
15	2	34	4	23	2	
16	2	14	5	26	2	
17	2	20	5	32	3	
18	2	22	3	22	3	
19	2	20	5	27	2	
20	2	7	15	8	6	
21	2	16	4	33	3	
22	2	18	10	32	4	
23	2	28	3	21	3	
24	2	18	8	15	8	
25	2	14	5	22	3	
26	1	7	8	
27	2	4	17	10	10	
28	2	4	16	27	4	
29	2	7	12	6	12	
30	1	17	7	
